c A satisfiable formula with 20 variables and 20 clauses
p cnf 20 20
1 2 3 0
-1 4 5 0
-2 -4 6 0
-3 -5 -6 0
7 8 9 0
-7 10 11 0
-8 -10 12 0
-9 -11 -12 0
13 14 15 0
-13 16 17 0
-14 -16 18 0
-15 -17 -18 0
1 7 13 0
2 8 14 0
3 9 15 0
4 10 16 0
5 11 17 0
6 12 18 0
19 20 1 0
-19 -20 -1 0
